
  32    4
  10   10   10   10

   0   0   0   0   0   6 2 3 6 7 15 18 
   1   1   1   1   0   2 5 4 
   9   0   4   6   1   5 21 12 11 10 9 
   9   7   4   7   0   5 30 20 17 10 9 
  10   5   0   3   6   4 21 12 11 10 
   3   3   7   0   3   5 30 25 21 20 10 
   1   0   2   7   4   2 27 8 
   5   2   2   4   0   2 25 10 
   1   4   0   4   4   3 26 19 13 
   7   2   4   0   4   3 24 19 14 
   6   0   1   3   3   4 30 29 25 20 
   5   2   0   1   8   3 29 25 16 
   2   8   6   3   0   2 25 16 
   3   2   0   3   2   3 28 26 22 
   2   5   0   4   5   2 31 20 
   4   3   5   0   1   2 24 22 
  10   4   2   0   5   2 29 23 
   5   8   3   0   6   2 30 29 
   4   4   5   4   0   1 23 
   7   4   5   0   3   1 27 
   5   0   3   2   4   1 23 
   3   5   4   0   3   1 32
   4   0   7   6   3   1 32
   3   0   5   5   4   1 32
   7   4   3   5   0   1 32
   7   3   4   5   0   1 32
   3   0   8   5   4   1 32
  10   4   0   3   6   1 32
   4   0   1   5   5   1 32
   2   0   3   4   4   1 32
   6   0   7   2   4   1 32
   0   0   0   0   0   0 
